
<<< setup


<<< generate

CPXPARAM_Simplex_Tolerances_Optimality           0.001
CPXPARAM_Simplex_Tolerances_Feasibility          0.001
CPXPARAM_TimeLimit                               3600
CPXPARAM_Threads                                 8
CPXPARAM_MIP_Tolerances_AbsMIPGap                0.001
CPXPARAM_MIP_Tolerances_MIPGap                   0.001
CPXPARAM_MIP_Tolerances_Integrality              0.001
CPXPARAM_MIP_Display                             4
CPXPARAM_MIP_PolishAfter_Solutions               1
Tried aggregator 2 times.
MIQCP Presolve eliminated 2 rows and 2 columns.
Aggregator did 1 substitutions.
Reduced MIQCP has 38 rows, 102 columns, and 171 nonzeros.
Reduced MIQCP has 0 binaries, 16 generals, 0 SOSs, and 0 indicators.
Reduced MIQCP has 3 quadratic constraints.
Presolve time = 0.00 sec. (0.08 ticks)
MIP emphasis: balance optimality and feasibility.
MIP search method: dynamic search.
Parallel mode: deterministic, using up to 8 threads.
Tried aggregator 1 time.
LP Presolve eliminated 37 rows and 101 columns.
Aggregator did 1 substitutions.
All rows and columns eliminated.
Presolve time = 0.00 sec. (0.03 ticks)
Initializing dual steep norms . . .
Root relaxation solution time = 0.00 sec. (0.05 ticks)

        Nodes                                         Cuts/
   Node  Left     Objective  IInf  Best Integer    Best Bound    ItCnt     Gap

      0     0     2224.0400     0                                   11         
      0     0     2224.0400     0                     Cone: 2       19         
      0     0     2224.0400     0                     Cone: 4       26         
      0     0     2224.0400     0                     Cone: 6       35         
      0     0     2224.0400     1                     Cone: 8       43         
      0     0     2224.0400     1                    Cone: 10       51         
      0     0     2224.0400     1                    Cone: 12       57         
      0     0     2830.0797     1                    Cone: 46      101         
      0     0     2830.0797    12                    Cone: 77      134         
      0     0     2830.0797    15                   Cone: 109      168         
      0     0     2830.0797    16                   Cone: 141      201         
      0     0     2830.0797    16                   Cone: 173      232         
      0     0     2830.0797    16                   Cone: 205      263         
      0     0     2830.0797    16                   Cone: 237      269         
      0     0     2830.0797    16                   Cone: 269      276         
      0     0     2830.0797    16                   Cone: 301      283         
      0     0     2830.0797    16                   Cone: 333      286         
      0     0     2830.0797    16                   Cone: 365      289         
      0     0     2830.0797    16                   Cone: 397      292         
      0     0     2830.0797    16                   Cone: 429      295         
      0     0     2830.0797    16                   Cone: 461      298         
      0     0     2830.0797    16                   Cone: 493      300         
      0     0     2830.0797    16                   Cone: 525      302         
      0     0     2830.0797    16                   2830.0797      302         
*     0+    0                         2848.0207     2830.0797             0.63%
Found incumbent of value 2848.020711 after 0.03 sec. (8.58 ticks)

Starting condition for polishing reached (PolishAfterIntSol).
Starting solution polishing.

      0     2     2830.0797    16     2848.0207     2830.0797      302    0.63%
Elapsed time = 0.03 sec. (9.71 ticks, tree = 0.01 MB, solutions = 1)
*   549   217      integral     0     2848.0169     2840.8182     1880    0.25%
                                                    Cuts: 344                  
Found incumbent of value 2848.016893 after 1.38 sec. (204.11 ticks)
    598   232     2842.5988     4     2848.0169     2840.8460     2084    0.25%
                                                      Cuts: 4                  
    763   294     2844.4162     6     2848.0169     2842.0145     2829    0.21%
                                                     Cuts: 34                  
    927   346     2847.2668     7     2848.0169     2842.7560     3268    0.18%
   1074   347     2846.5751     3     2848.0169     2843.6966     3853    0.15%
                                                     Cuts: 52                  
   1228   287     2845.1080    10     2848.0169     2844.4162     4336    0.13%
                                                      Cuts: 6                  

Cone linearizations applied:  280

Root node processing (before b&c):
  Real time             =    0.03 sec. (8.59 ticks)
Parallel b&c, 8 threads:
  Real time             =    5.66 sec. (1327.57 ticks)
  Sync time (average)   =    1.74 sec.
  Wait time (average)   =    0.00 sec.
                          ------------
Total (root+branch&cut) =    5.69 sec. (1336.16 ticks)

<<< solve


OBJECTIVE: 2848.017
X*: [-2.4739 2.4739 -2.4739 2.4739 -2.4739 2.4739 -2.4739 2.4739 -2.4739 2.4739
     -2.4739 2.4739 -2.4739 2.4739 -2.4739 2.4739] Z*: [-2 3 -3 3 -3 3 -3 3 -3 3 -3 3 -3 3 -3 3]
f*:2848.016894436

<<< post process


<<< done

